sat
(:max-memory          18.06
 :memory              17.93
 :nlsat-conflicts     4
 :nlsat-decisions     1
 :nlsat-learned-added 4
 :nlsat-propagations  34
 :nlsat-stages        7
 :num-allocs          6333
 :rlimit-count        2163
 :time                0.00
 :total-time          0.01)
